c Reduced graph for r06 generated by Cyril Grelier
p edge 148 1381
e 1 2
e 1 3
e 1 4
e 1 5
e 1 6
e 1 7
e 1 10
e 1 11
e 1 12
e 1 13
e 1 14
e 1 21
e 1 22
e 1 23
e 1 24
e 1 25
e 1 28
e 1 62
e 1 63
e 1 72
e 1 80
e 1 83
e 1 85
e 1 86
e 1 96
e 2 3
e 2 5
e 2 6
e 2 7
e 2 8
e 2 11
e 2 12
e 2 13
e 2 19
e 2 23
e 2 24
e 2 26
e 2 35
e 2 37
e 2 39
e 2 41
e 2 47
e 2 63
e 2 85
e 2 86
e 2 92
e 2 95
e 2 123
e 3 5
e 3 6
e 3 7
e 3 9
e 3 11
e 3 12
e 3 13
e 3 20
e 3 23
e 3 24
e 3 27
e 3 36
e 3 38
e 3 40
e 3 42
e 3 48
e 3 63
e 3 84
e 3 85
e 3 86
e 3 93
e 3 99
e 4 8
e 4 9
e 4 10
e 4 14
e 4 15
e 4 16
e 4 17
e 4 18
e 4 21
e 4 22
e 4 25
e 4 28
e 4 29
e 4 30
e 4 49
e 4 50
e 4 62
e 4 72
e 4 80
e 4 83
e 4 91
e 4 96
e 4 105
e 5 6
e 5 7
e 5 11
e 5 12
e 5 13
e 5 15
e 5 23
e 5 24
e 5 31
e 5 43
e 5 53
e 5 56
e 5 63
e 5 64
e 5 69
e 5 85
e 5 86
e 5 106
e 5 109
e 5 121
e 6 7
e 6 11
e 6 12
e 6 13
e 6 16
e 6 23
e 6 24
e 6 32
e 6 44
e 6 57
e 6 59
e 6 63
e 6 70
e 6 85
e 6 86
e 6 107
e 6 112
e 6 122
e 6 139
e 7 11
e 7 12
e 7 13
e 7 18
e 7 23
e 7 24
e 7 34
e 7 46
e 7 55
e 7 58
e 7 61
e 7 63
e 7 66
e 7 71
e 7 85
e 7 86
e 7 101
e 7 111
e 8 9
e 8 15
e 8 16
e 8 17
e 8 18
e 8 19
e 8 26
e 8 29
e 8 30
e 8 35
e 8 37
e 8 39
e 8 41
e 8 47
e 8 49
e 8 50
e 8 91
e 8 92
e 8 95
e 8 105
e 8 123
e 9 15
e 9 16
e 9 17
e 9 18
e 9 20
e 9 27
e 9 29
e 9 30
e 9 36
e 9 38
e 9 40
e 9 42
e 9 48
e 9 49
e 9 50
e 9 84
e 9 91
e 9 93
e 9 99
e 9 105
e 10 14
e 10 19
e 10 20
e 10 21
e 10 22
e 10 25
e 10 28
e 10 31
e 10 32
e 10 33
e 10 34
e 10 51
e 10 52
e 10 62
e 10 72
e 10 73
e 10 74
e 10 80
e 10 83
e 10 96
e 10 117
e 11 12
e 11 13
e 11 23
e 11 24
e 11 29
e 11 63
e 11 67
e 11 75
e 11 78
e 11 85
e 11 86
e 11 114
e 11 119
e 11 124
e 11 137
e 11 142
e 12 13
e 12 23
e 12 24
e 12 30
e 12 51
e 12 63
e 12 68
e 12 76
e 12 81
e 12 85
e 12 86
e 12 87
e 12 120
e 12 125
e 12 143
e 13 23
e 13 24
e 13 52
e 13 63
e 13 77
e 13 79
e 13 82
e 13 85
e 13 86
e 13 88
e 13 90
e 13 115
e 13 116
e 13 126
e 14 21
e 14 22
e 14 25
e 14 26
e 14 27
e 14 28
e 14 43
e 14 44
e 14 45
e 14 46
e 14 62
e 14 67
e 14 68
e 14 72
e 14 80
e 14 83
e 14 89
e 14 96
e 14 129
e 15 16
e 15 17
e 15 18
e 15 29
e 15 30
e 15 31
e 15 43
e 15 49
e 15 50
e 15 53
e 15 56
e 15 64
e 15 69
e 15 91
e 15 105
e 15 106
e 15 109
e 15 121
e 16 17
e 16 18
e 16 29
e 16 30
e 16 32
e 16 44
e 16 49
e 16 50
e 16 57
e 16 59
e 16 70
e 16 91
e 16 105
e 16 107
e 16 112
e 16 122
e 16 139
e 17 18
e 17 29
e 17 30
e 17 33
e 17 45
e 17 49
e 17 50
e 17 54
e 17 60
e 17 65
e 17 91
e 17 100
e 17 105
e 17 108
e 17 110
e 17 113
e 17 140
e 18 29
e 18 30
e 18 34
e 18 46
e 18 49
e 18 50
e 18 55
e 18 58
e 18 61
e 18 66
e 18 71
e 18 91
e 18 101
e 18 105
e 18 111
e 19 20
e 19 26
e 19 31
e 19 32
e 19 33
e 19 34
e 19 35
e 19 37
e 19 39
e 19 41
e 19 47
e 19 51
e 19 52
e 19 73
e 19 74
e 19 92
e 19 95
e 19 117
e 19 123
e 20 27
e 20 31
e 20 32
e 20 33
e 20 34
e 20 36
e 20 38
e 20 40
e 20 42
e 20 48
e 20 51
e 20 52
e 20 73
e 20 74
e 20 84
e 20 93
e 20 99
e 20 117
e 21 22
e 21 25
e 21 28
e 21 37
e 21 38
e 21 56
e 21 57
e 21 58
e 21 62
e 21 72
e 21 78
e 21 79
e 21 80
e 21 83
e 21 96
e 21 118
e 21 134
e 21 135
e 22 25
e 22 28
e 22 39
e 22 40
e 22 59
e 22 60
e 22 61
e 22 62
e 22 72
e 22 80
e 22 81
e 22 82
e 22 83
e 22 96
e 22 97
e 22 98
e 22 138
e 23 24
e 23 49
e 23 63
e 23 73
e 23 85
e 23 86
e 23 89
e 23 94
e 23 97
e 23 103
e 23 131
e 23 145
e 24 50
e 24 63
e 24 74
e 24 85
e 24 86
e 24 98
e 24 102
e 24 104
e 24 127
e 24 136
e 24 141
e 25 28
e 25 41
e 25 42
e 25 62
e 25 64
e 25 65
e 25 66
e 25 72
e 25 80
e 25 83
e 25 87
e 25 88
e 25 96
e 25 102
e 25 128
e 26 27
e 26 35
e 26 37
e 26 39
e 26 41
e 26 43
e 26 44
e 26 45
e 26 46
e 26 47
e 26 67
e 26 68
e 26 89
e 26 92
e 26 95
e 26 123
e 26 129
e 27 36
e 27 38
e 27 40
e 27 42
e 27 43
e 27 44
e 27 45
e 27 46
e 27 48
e 27 67
e 27 68
e 27 84
e 27 89
e 27 93
e 27 99
e 27 129
e 28 47
e 28 48
e 28 62
e 28 69
e 28 70
e 28 71
e 28 72
e 28 80
e 28 83
e 28 90
e 28 96
e 28 103
e 28 104
e 28 130
e 29 30
e 29 49
e 29 50
e 29 67
e 29 75
e 29 78
e 29 91
e 29 105
e 29 114
e 29 119
e 29 124
e 29 137
e 29 142
e 30 49
e 30 50
e 30 51
e 30 68
e 30 76
e 30 81
e 30 87
e 30 91
e 30 105
e 30 120
e 30 125
e 30 143
e 31 32
e 31 33
e 31 34
e 31 43
e 31 51
e 31 52
e 31 53
e 31 56
e 31 64
e 31 69
e 31 73
e 31 74
e 31 106
e 31 109
e 31 117
e 31 121
e 32 33
e 32 34
e 32 44
e 32 51
e 32 52
e 32 57
e 32 59
e 32 70
e 32 73
e 32 74
e 32 107
e 32 112
e 32 117
e 32 122
e 32 139
e 33 34
e 33 45
e 33 51
e 33 52
e 33 54
e 33 60
e 33 65
e 33 73
e 33 74
e 33 100
e 33 108
e 33 110
e 33 113
e 33 117
e 33 140
e 34 46
e 34 51
e 34 52
e 34 55
e 34 58
e 34 61
e 34 66
e 34 71
e 34 73
e 34 74
e 34 101
e 34 111
e 34 117
e 35 36
e 35 37
e 35 39
e 35 41
e 35 47
e 35 53
e 35 54
e 35 55
e 35 75
e 35 76
e 35 77
e 35 92
e 35 94
e 35 95
e 35 123
e 35 132
e 35 133
e 36 38
e 36 40
e 36 42
e 36 48
e 36 53
e 36 54
e 36 55
e 36 75
e 36 76
e 36 77
e 36 84
e 36 93
e 36 94
e 36 99
e 36 132
e 36 133
e 37 38
e 37 39
e 37 41
e 37 47
e 37 56
e 37 57
e 37 58
e 37 78
e 37 79
e 37 92
e 37 95
e 37 118
e 37 123
e 37 134
e 37 135
e 38 40
e 38 42
e 38 48
e 38 56
e 38 57
e 38 58
e 38 78
e 38 79
e 38 84
e 38 93
e 38 99
e 38 118
e 38 134
e 38 135
e 39 40
e 39 41
e 39 47
e 39 59
e 39 60
e 39 61
e 39 81
e 39 82
e 39 92
e 39 95
e 39 97
e 39 98
e 39 123
e 39 138
e 40 42
e 40 48
e 40 59
e 40 60
e 40 61
e 40 81
e 40 82
e 40 84
e 40 93
e 40 97
e 40 98
e 40 99
e 40 138
e 41 42
e 41 47
e 41 64
e 41 65
e 41 66
e 41 87
e 41 88
e 41 92
e 41 95
e 41 102
e 41 123
e 41 128
e 42 48
e 42 64
e 42 65
e 42 66
e 42 84
e 42 87
e 42 88
e 42 93
e 42 99
e 42 102
e 42 128
e 43 44
e 43 45
e 43 46
e 43 53
e 43 56
e 43 64
e 43 67
e 43 68
e 43 69
e 43 89
e 43 106
e 43 109
e 43 121
e 43 129
e 44 45
e 44 46
e 44 57
e 44 59
e 44 67
e 44 68
e 44 70
e 44 89
e 44 107
e 44 112
e 44 122
e 44 129
e 44 139
e 45 46
e 45 54
e 45 60
e 45 65
e 45 67
e 45 68
e 45 89
e 45 100
e 45 108
e 45 110
e 45 113
e 45 129
e 45 140
e 46 55
e 46 58
e 46 61
e 46 66
e 46 67
e 46 68
e 46 71
e 46 89
e 46 101
e 46 111
e 46 129
e 47 48
e 47 69
e 47 70
e 47 71
e 47 90
e 47 92
e 47 95
e 47 103
e 47 104
e 47 123
e 47 130
e 48 69
e 48 70
e 48 71
e 48 84
e 48 90
e 48 93
e 48 99
e 48 103
e 48 104
e 48 130
e 49 50
e 49 73
e 49 89
e 49 91
e 49 94
e 49 97
e 49 103
e 49 105
e 49 131
e 49 145
e 50 74
e 50 91
e 50 98
e 50 102
e 50 104
e 50 105
e 50 127
e 50 136
e 50 141
e 51 52
e 51 68
e 51 73
e 51 74
e 51 76
e 51 81
e 51 87
e 51 117
e 51 120
e 51 125
e 51 143
e 52 73
e 52 74
e 52 77
e 52 79
e 52 82
e 52 88
e 52 90
e 52 115
e 52 116
e 52 117
e 52 126
e 53 54
e 53 55
e 53 56
e 53 64
e 53 69
e 53 75
e 53 76
e 53 77
e 53 94
e 53 106
e 53 109
e 53 121
e 53 132
e 53 133
e 54 55
e 54 60
e 54 65
e 54 75
e 54 76
e 54 77
e 54 94
e 54 100
e 54 108
e 54 110
e 54 113
e 54 132
e 54 133
e 54 140
e 55 58
e 55 61
e 55 66
e 55 71
e 55 75
e 55 76
e 55 77
e 55 94
e 55 101
e 55 111
e 55 132
e 55 133
e 56 57
e 56 58
e 56 64
e 56 69
e 56 78
e 56 79
e 56 106
e 56 109
e 56 118
e 56 121
e 56 134
e 56 135
e 57 58
e 57 59
e 57 70
e 57 78
e 57 79
e 57 107
e 57 112
e 57 118
e 57 122
e 57 134
e 57 135
e 57 139
e 58 61
e 58 66
e 58 71
e 58 78
e 58 79
e 58 101
e 58 111
e 58 118
e 58 134
e 58 135
e 59 60
e 59 61
e 59 70
e 59 81
e 59 82
e 59 97
e 59 98
e 59 107
e 59 112
e 59 122
e 59 138
e 59 139
e 60 61
e 60 65
e 60 81
e 60 82
e 60 97
e 60 98
e 60 100
e 60 108
e 60 110
e 60 113
e 60 138
e 60 140
e 61 66
e 61 71
e 61 81
e 61 82
e 61 97
e 61 98
e 61 101
e 61 111
e 61 138
e 62 72
e 62 80
e 62 83
e 62 84
e 62 96
e 62 100
e 62 101
e 62 114
e 62 115
e 62 127
e 62 144
e 63 85
e 63 86
e 63 91
e 63 118
e 63 128
e 63 130
e 63 144
e 63 146
e 64 65
e 64 66
e 64 69
e 64 87
e 64 88
e 64 102
e 64 106
e 64 109
e 64 121
e 64 128
e 65 66
e 65 87
e 65 88
e 65 100
e 65 102
e 65 108
e 65 110
e 65 113
e 65 128
e 65 140
e 66 71
e 66 87
e 66 88
e 66 101
e 66 102
e 66 111
e 66 128
e 67 68
e 67 75
e 67 78
e 67 89
e 67 114
e 67 119
e 67 124
e 67 129
e 67 137
e 67 142
e 68 76
e 68 81
e 68 87
e 68 89
e 68 120
e 68 125
e 68 129
e 68 143
e 69 70
e 69 71
e 69 90
e 69 103
e 69 104
e 69 106
e 69 109
e 69 121
e 69 130
e 70 71
e 70 90
e 70 103
e 70 104
e 70 107
e 70 112
e 70 122
e 70 130
e 70 139
e 71 90
e 71 101
e 71 103
e 71 104
e 71 111
e 71 130
e 72 80
e 72 83
e 72 92
e 72 93
e 72 96
e 72 106
e 72 107
e 72 108
e 72 116
e 72 131
e 73 74
e 73 89
e 73 94
e 73 97
e 73 103
e 73 117
e 73 131
e 73 145
e 74 98
e 74 102
e 74 104
e 74 117
e 74 127
e 74 136
e 74 141
e 75 76
e 75 77
e 75 78
e 75 94
e 75 114
e 75 119
e 75 124
e 75 132
e 75 133
e 75 137
e 75 142
e 76 77
e 76 81
e 76 87
e 76 94
e 76 120
e 76 125
e 76 132
e 76 133
e 76 143
e 77 79
e 77 82
e 77 88
e 77 90
e 77 94
e 77 115
e 77 116
e 77 126
e 77 132
e 77 133
e 78 79
e 78 114
e 78 118
e 78 119
e 78 124
e 78 134
e 78 135
e 78 137
e 78 142
e 79 82
e 79 88
e 79 90
e 79 115
e 79 116
e 79 118
e 79 126
e 79 134
e 79 135
e 80 83
e 80 95
e 80 96
e 80 109
e 80 110
e 80 111
e 80 119
e 80 120
e 80 136
e 81 82
e 81 87
e 81 97
e 81 98
e 81 120
e 81 125
e 81 138
e 81 143
e 82 88
e 82 90
e 82 97
e 82 98
e 82 115
e 82 116
e 82 126
e 82 138
e 83 96
e 83 99
e 83 112
e 83 113
e 83 124
e 83 125
e 83 126
e 83 146
e 84 93
e 84 99
e 84 100
e 84 101
e 84 114
e 84 115
e 84 127
e 84 144
e 85 86
e 85 129
e 85 132
e 85 134
e 85 138
e 85 147
e 86 105
e 86 117
e 86 133
e 86 135
e 86 148
e 87 88
e 87 102
e 87 120
e 87 125
e 87 128
e 87 143
e 88 90
e 88 102
e 88 115
e 88 116
e 88 126
e 88 128
e 89 94
e 89 97
e 89 103
e 89 129
e 89 131
e 89 145
e 90 103
e 90 104
e 90 115
e 90 116
e 90 126
e 90 130
e 91 105
e 91 118
e 91 128
e 91 130
e 91 144
e 91 146
e 92 93
e 92 95
e 92 106
e 92 107
e 92 108
e 92 116
e 92 123
e 92 131
e 93 99
e 93 106
e 93 107
e 93 108
e 93 116
e 93 131
e 94 97
e 94 103
e 94 131
e 94 132
e 94 133
e 94 145
e 95 109
e 95 110
e 95 111
e 95 119
e 95 120
e 95 123
e 95 136
e 96 121
e 96 122
e 96 137
e 96 141
e 96 147
e 96 148
e 97 98
e 97 103
e 97 131
e 97 138
e 97 145
e 98 102
e 98 104
e 98 127
e 98 136
e 98 138
e 98 141
e 99 112
e 99 113
e 99 124
e 99 125
e 99 126
e 99 146
e 100 101
e 100 108
e 100 110
e 100 113
e 100 114
e 100 115
e 100 127
e 100 140
e 100 144
e 101 111
e 101 114
e 101 115
e 101 127
e 101 144
e 102 104
e 102 127
e 102 128
e 102 136
e 102 141
e 103 104
e 103 130
e 103 131
e 103 145
e 104 127
e 104 130
e 104 136
e 104 141
e 105 117
e 105 133
e 105 135
e 105 148
e 106 107
e 106 108
e 106 109
e 106 116
e 106 121
e 106 131
e 107 108
e 107 112
e 107 116
e 107 122
e 107 131
e 107 139
e 108 110
e 108 113
e 108 116
e 108 131
e 108 140
e 109 110
e 109 111
e 109 119
e 109 120
e 109 121
e 109 136
e 110 111
e 110 113
e 110 119
e 110 120
e 110 136
e 110 140
e 111 119
e 111 120
e 111 136
e 112 113
e 112 122
e 112 124
e 112 125
e 112 126
e 112 139
e 112 146
e 113 124
e 113 125
e 113 126
e 113 140
e 113 146
e 114 115
e 114 119
e 114 124
e 114 127
e 114 137
e 114 142
e 114 144
e 115 116
e 115 126
e 115 127
e 115 144
e 116 126
e 116 131
e 117 133
e 117 135
e 117 148
e 118 128
e 118 130
e 118 134
e 118 135
e 118 144
e 118 146
e 119 120
e 119 124
e 119 136
e 119 137
e 119 142
e 120 125
e 120 136
e 120 143
e 121 122
e 121 137
e 121 141
e 121 147
e 121 148
e 122 137
e 122 139
e 122 141
e 122 147
e 122 148
e 123 139
e 123 140
e 123 142
e 123 143
e 123 145
e 124 125
e 124 126
e 124 137
e 124 142
e 124 146
e 125 126
e 125 143
e 125 146
e 126 146
e 127 136
e 127 141
e 127 144
e 128 130
e 128 144
e 128 146
e 129 132
e 129 134
e 129 138
e 129 147
e 130 144
e 130 146
e 131 145
e 132 133
e 132 134
e 132 138
e 132 147
e 133 135
e 133 148
e 134 135
e 134 138
e 134 147
e 135 148
e 136 141
e 137 141
e 137 142
e 137 147
e 137 148
e 138 147
e 139 140
e 139 142
e 139 143
e 139 145
e 140 142
e 140 143
e 140 145
e 141 147
e 141 148
e 142 143
e 142 145
e 143 145
e 144 146
e 147 148
